Gurobi Optimizer version 9.1.2 build v9.1.2rc0 (linux64)
Thread count: 36 physical cores, 72 logical processors, using up to 32 threads
Optimize a model with 12 rows, 57 columns and 590 nonzeros
Model fingerprint: 0xf32eec78
Model has 47 quadratic constraints
Coefficient statistics:
  Matrix range     [2e-05, 3e+00]
  QMatrix range    [1e+00, 1e+00]
  QLMatrix range   [1e+00, 1e+00]
  Objective range  [8e-03, 7e-01]
  Bounds range     [1e+00, 1e+00]
  RHS range        [1e+00, 1e+00]
Presolve removed 9 rows and 0 columns

Continuous model is non-convex -- solving as a MIP.

Presolve removed 9 rows and 0 columns
Presolve time: 0.00s
Presolved: 189 rows, 57 columns, 443 nonzeros
Presolved model has 47 bilinear constraint(s)
Variable types: 57 continuous, 0 integer (0 binary)

Root relaxation: objective -1.743721e+00, 44 iterations, 0.00 seconds

    Nodes    |    Current Node    |     Objective Bounds      |     Work
 Expl Unexpl |  Obj  Depth IntInf | Incumbent    BestBd   Gap | It/Node Time

     0     0   -1.74372    0   38          -   -1.74372      -     -    0s
H    0     0                       0.6147548   -1.74372   384%     -    0s
     0     0   -1.64739    0    1    0.61475   -1.64739   368%     -    0s
H    0     0                      -1.6450460   -1.64739  0.14%     -    0s
     0     0     cutoff    0        -1.64505   -1.64505  0.00%     -    0s

Cutting planes:
  RLT: 25
  BQP: 3

Explored 1 nodes (76 simplex iterations) in 0.01 seconds
Thread count was 32 (of 72 available processors)

Solution count 2: -1.64505 0.614755 
No other solutions better than -1.64505

Optimal solution found (tolerance 1.00e-04)
Best objective -1.645045978473e+00, best bound -1.645045978473e+00, gap 0.0000%

User-callback calls 78, time in user-callback 0.00 sec
Gurobi Optimizer version 9.1.2 build v9.1.2rc0 (linux64)
Thread count: 36 physical cores, 72 logical processors, using up to 32 threads
Optimize a model with 60 rows, 300 columns and 15500 nonzeros
Model fingerprint: 0x98082f72
Model has 250 quadratic constraints
Coefficient statistics:
  Matrix range     [1e-06, 4e+00]
  QMatrix range    [1e+00, 1e+00]
  QLMatrix range   [1e+00, 1e+00]
  Objective range  [3e-04, 1e+00]
  Bounds range     [1e+00, 1e+00]
  RHS range        [1e+00, 1e+00]
Presolve removed 12 rows and 0 columns

Continuous model is non-convex -- solving as a MIP.

Presolve removed 12 rows and 0 columns
Presolve time: 0.01s
Presolved: 1048 rows, 300 columns, 13861 nonzeros
Presolved model has 250 bilinear constraint(s)
Variable types: 300 continuous, 0 integer (0 binary)

Root relaxation: objective -2.652850e+01, 366 iterations, 0.02 seconds

    Nodes    |    Current Node    |     Objective Bounds      |     Work
 Expl Unexpl |  Obj  Depth IntInf | Incumbent    BestBd   Gap | It/Node Time

     0     0  -26.52850    0  209          -  -26.52850      -     -    0s
     0     0  -24.16793    0  200          -  -24.16793      -     -    0s
     0     0  -23.54699    0  127          -  -23.54699      -     -    0s
     0     0  -23.54548    0  127          -  -23.54548      -     -    0s
     0     0  -23.54548    0  127          -  -23.54548      -     -    0s
     0     2  -23.54548    0  127          -  -23.54548      -     -    0s
* 1891  1965              51     -21.0109249  -21.80002  3.76%  63.1    1s
* 2528  1731              67     -21.0139778  -21.46705  2.16%  61.6    2s
* 2529  1731              67     -21.0140388  -21.46705  2.16%  61.6    2s
* 4189  1556              54     -21.0223360  -21.23392  1.01%  62.3    3s
* 4672  1483              50     -21.0234271  -21.14364  0.57%  59.1    3s
* 4940  1450              49     -21.0234361  -21.07009  0.22%  57.3    3s
* 4945  1450              49     -21.0234364  -21.07009  0.22%  57.3    3s
* 5004  1450              39     -21.0250342  -21.07009  0.21%  56.8    3s
* 5812  1610              46     -21.0252432  -21.06058  0.17%  51.1    3s
* 5888  1610              44     -21.0253375  -21.06058  0.17%  50.5    3s
* 5947  1610              50     -21.0260133  -21.06058  0.16%  50.3    3s
* 6020  1610              43     -21.0301325  -21.06058  0.14%  49.8    3s
* 6021  1610              43     -21.0301368  -21.06058  0.14%  49.8    3s
* 6681  1993              49     -21.0316487  -21.05069  0.09%  46.0    4s
* 6820  1993              45     -21.0329195  -21.05069  0.08%  45.3    4s
* 6821  1993              46     -21.0329813  -21.05069  0.08%  45.2    4s
* 7402  1720              44     -21.0336892  -21.04735  0.06%  42.3    4s
* 8158  1624              44     -21.0337626  -21.04735  0.06%  38.9    4s
* 8159  1624              44     -21.0337632  -21.04735  0.06%  38.9    4s
* 8182  1624              44     -21.0341828  -21.04735  0.06%  38.8    4s
* 8186  1624              47     -21.0342174  -21.04735  0.06%  38.8    4s
* 8378  1624              44     -21.0342316  -21.04735  0.06%  38.0    4s
* 8618  1624              45     -21.0344645  -21.04735  0.06%  37.1    4s
* 8887  1032              45     -21.0345267  -21.03629  0.01%  36.1    4s
* 8895  1032              45     -21.0345271  -21.03629  0.01%  36.0    4s

Cutting planes:
  RLT: 62
  BQP: 5

Explored 9827 nodes (323353 simplex iterations) in 4.54 seconds
Thread count was 32 (of 72 available processors)

Solution count 10: -21.0345 -21.0345 -21.0345 ... -21.0329

Optimal solution found (tolerance 1.00e-04)
Best objective -2.103452707805e+01, best bound -2.103628672379e+01, gap 0.0084%

User-callback calls 20415, time in user-callback 0.00 sec



objective value: -21.034527078048615
objective bound: -21.036286723791846
x_opt: [0.0, 1.0, 1.0, 0.0, 0.0, 0.0, 1.0, 1.0, 0.0, 0.0, 0.2526631553602955, 0.42276810005114046, 0.0, 1.0, 1.0, 1.0, 0.0, 1.0, 0.0, 0.0, 0.0, 1.0, 1.0, 1.0, 0.0, 1.0, 1.0, 1.0, 0.0, 0.9976373534213694, 1.0, 0.8503025152396593, 0.0, 0.21514523240871256, 1.0, 1.0, 1.0, 1.0, 0.32841286154047195, 1.0, 0.8622253873671917, 0.2716104085085121, 1.0, 0.0, 0.0, 0.7720119761417534, 0.09221091295596351, 0.1289757043136162, 0.0, 1.0]
GUROBI solution time: 4.542101144790649

